(set-logic QF_UF)
(set-info :source |
CADE ATP System competition. See http://www.cs.miami.edu/~tptp/CASC
 for more information. 

This benchmark was obtained by trying to find a finite model of a first-order 
formula (Albert Oliveras).
|)
(set-info :smt-lib-version 2.0)
(set-info :category "crafted")
(set-info :status unsat)
(declare-sort U 0)
(declare-fun f1 (U U) U)
(declare-fun c2 () U)
(declare-fun c3 () U)
(declare-fun c_0 () U)
(declare-fun c_1 () U)
(declare-fun c_2 () U)
(declare-fun c_3 () U)
(assert (let ((?v_1 (= c_0 c_0)) (?v_0 (f1 c_0 c_0))) (let ((?v_64 (or ?v_1 (not (= ?v_0 ?v_0)))) (?v_2 (f1 c_0 c_1))) (let ((?v_68 (not (= ?v_2 ?v_2))) (?v_3 (f1 c_0 c_2))) (let ((?v_72 (not (= ?v_3 ?v_3))) (?v_4 (f1 c_0 c_3))) (let ((?v_76 (not (= ?v_4 ?v_4))) (?v_5 (= c_0 c_1)) (?v_8 (f1 c_1 c_0)) (?v_10 (f1 c_1 c_1)) (?v_11 (f1 c_1 c_2)) (?v_12 (f1 c_1 c_3)) (?v_6 (= c_0 c_2)) (?v_14 (f1 c_2 c_0)) (?v_16 (f1 c_2 c_1)) (?v_17 (f1 c_2 c_2)) (?v_18 (f1 c_2 c_3)) (?v_7 (= c_0 c_3)) (?v_19 (f1 c_3 c_0)) (?v_21 (f1 c_3 c_1)) (?v_22 (f1 c_3 c_2)) (?v_23 (f1 c_3 c_3)) (?v_9 (= c_1 c_0)) (?v_13 (= c_1 c_1))) (let ((?v_65 (not (= ?v_8 ?v_8))) (?v_69 (or ?v_13 (not (= ?v_10 ?v_10)))) (?v_73 (not (= ?v_11 ?v_11))) (?v_77 (not (= ?v_12 ?v_12))) (?v_15 (= c_1 c_2)) (?v_20 (= c_1 c_3)) (?v_24 (= c_2 c_0)) (?v_25 (= c_2 c_1)) (?v_26 (= c_2 c_2)) (?v_66 (not (= ?v_14 ?v_14))) (?v_70 (not (= ?v_16 ?v_16)))) (let ((?v_74 (or ?v_26 (not (= ?v_17 ?v_17)))) (?v_78 (not (= ?v_18 ?v_18))) (?v_27 (= c_2 c_3)) (?v_28 (= c_3 c_0)) (?v_29 (= c_3 c_1)) (?v_30 (= c_3 c_2)) (?v_31 (= c_3 c_3)) (?v_67 (not (= ?v_19 ?v_19))) (?v_71 (not (= ?v_21 ?v_21))) (?v_75 (not (= ?v_22 ?v_22)))) (let ((?v_79 (or ?v_31 (not (= ?v_23 ?v_23)))) (?v_36 (f1 c_0 ?v_0))) (let ((?v_32 (f1 c_0 (f1 c_0 (f1 c_0 ?v_36)))) (?v_44 (f1 c_1 ?v_2)) (?v_43 (f1 c_1 ?v_0)) (?v_51 (f1 c_2 ?v_3)) (?v_50 (f1 c_2 ?v_0)) (?v_58 (f1 c_3 ?v_4)) (?v_57 (f1 c_3 ?v_0)) (?v_37 (f1 c_0 ?v_8)) (?v_38 (f1 c_0 ?v_10)) (?v_45 (f1 c_1 ?v_10))) (let ((?v_33 (f1 c_1 (f1 c_1 (f1 c_1 ?v_45)))) (?v_53 (f1 c_2 ?v_11)) (?v_52 (f1 c_2 ?v_10)) (?v_60 (f1 c_3 ?v_12)) (?v_59 (f1 c_3 ?v_10)) (?v_39 (f1 c_0 ?v_14)) (?v_40 (f1 c_0 ?v_17)) (?v_46 (f1 c_1 ?v_16)) (?v_47 (f1 c_1 ?v_17)) (?v_54 (f1 c_2 ?v_17))) (let ((?v_34 (f1 c_2 (f1 c_2 (f1 c_2 ?v_54)))) (?v_62 (f1 c_3 ?v_18)) (?v_61 (f1 c_3 ?v_17)) (?v_41 (f1 c_0 ?v_19)) (?v_42 (f1 c_0 ?v_23)) (?v_48 (f1 c_1 ?v_21)) (?v_49 (f1 c_1 ?v_23)) (?v_55 (f1 c_2 ?v_22)) (?v_56 (f1 c_2 ?v_23)) (?v_63 (f1 c_3 ?v_23))) (let ((?v_35 (f1 c_3 (f1 c_3 (f1 c_3 ?v_63))))) (and (distinct c_0 c_1 c_2 c_3) ?v_64 (or ?v_1 ?v_68) (or ?v_1 ?v_72) (or ?v_1 ?v_76) (or ?v_5 (not (= ?v_0 ?v_8))) (or ?v_5 (not (= ?v_2 ?v_10))) (or ?v_5 (not (= ?v_3 ?v_11))) (or ?v_5 (not (= ?v_4 ?v_12))) (or ?v_6 (not (= ?v_0 ?v_14))) (or ?v_6 (not (= ?v_2 ?v_16))) (or ?v_6 (not (= ?v_3 ?v_17))) (or ?v_6 (not (= ?v_4 ?v_18))) (or ?v_7 (not (= ?v_0 ?v_19))) (or ?v_7 (not (= ?v_2 ?v_21))) (or ?v_7 (not (= ?v_3 ?v_22))) (or ?v_7 (not (= ?v_4 ?v_23))) (or ?v_9 (not (= ?v_8 ?v_0))) (or ?v_9 (not (= ?v_10 ?v_2))) (or ?v_9 (not (= ?v_11 ?v_3))) (or ?v_9 (not (= ?v_12 ?v_4))) (or ?v_13 ?v_65) ?v_69 (or ?v_13 ?v_73) (or ?v_13 ?v_77) (or ?v_15 (not (= ?v_8 ?v_14))) (or ?v_15 (not (= ?v_10 ?v_16))) (or ?v_15 (not (= ?v_11 ?v_17))) (or ?v_15 (not (= ?v_12 ?v_18))) (or ?v_20 (not (= ?v_8 ?v_19))) (or ?v_20 (not (= ?v_10 ?v_21))) (or ?v_20 (not (= ?v_11 ?v_22))) (or ?v_20 (not (= ?v_12 ?v_23))) (or ?v_24 (not (= ?v_14 ?v_0))) (or ?v_24 (not (= ?v_16 ?v_2))) (or ?v_24 (not (= ?v_17 ?v_3))) (or ?v_24 (not (= ?v_18 ?v_4))) (or ?v_25 (not (= ?v_14 ?v_8))) (or ?v_25 (not (= ?v_16 ?v_10))) (or ?v_25 (not (= ?v_17 ?v_11))) (or ?v_25 (not (= ?v_18 ?v_12))) (or ?v_26 ?v_66) (or ?v_26 ?v_70) ?v_74 (or ?v_26 ?v_78) (or ?v_27 (not (= ?v_14 ?v_19))) (or ?v_27 (not (= ?v_16 ?v_21))) (or ?v_27 (not (= ?v_17 ?v_22))) (or ?v_27 (not (= ?v_18 ?v_23))) (or ?v_28 (not (= ?v_19 ?v_0))) (or ?v_28 (not (= ?v_21 ?v_2))) (or ?v_28 (not (= ?v_22 ?v_3))) (or ?v_28 (not (= ?v_23 ?v_4))) (or ?v_29 (not (= ?v_19 ?v_8))) (or ?v_29 (not (= ?v_21 ?v_10))) (or ?v_29 (not (= ?v_22 ?v_11))) (or ?v_29 (not (= ?v_23 ?v_12))) (or ?v_30 (not (= ?v_19 ?v_14))) (or ?v_30 (not (= ?v_21 ?v_16))) (or ?v_30 (not (= ?v_22 ?v_17))) (or ?v_30 (not (= ?v_23 ?v_18))) (or ?v_31 ?v_67) (or ?v_31 ?v_71) (or ?v_31 ?v_75) ?v_79 (= ?v_32 ?v_32) (= (f1 c_0 (f1 c_1 (f1 c_1 ?v_44))) (f1 c_1 (f1 c_1 (f1 c_1 ?v_43)))) (= (f1 c_0 (f1 c_2 (f1 c_2 ?v_51))) (f1 c_2 (f1 c_2 (f1 c_2 ?v_50)))) (= (f1 c_0 (f1 c_3 (f1 c_3 ?v_58))) (f1 c_3 (f1 c_3 (f1 c_3 ?v_57)))) (= (f1 c_1 (f1 c_0 (f1 c_0 ?v_37))) (f1 c_0 (f1 c_0 (f1 c_0 ?v_38)))) (= ?v_33 ?v_33) (= (f1 c_1 (f1 c_2 (f1 c_2 ?v_53))) (f1 c_2 (f1 c_2 (f1 c_2 ?v_52)))) (= (f1 c_1 (f1 c_3 (f1 c_3 ?v_60))) (f1 c_3 (f1 c_3 (f1 c_3 ?v_59)))) (= (f1 c_2 (f1 c_0 (f1 c_0 ?v_39))) (f1 c_0 (f1 c_0 (f1 c_0 ?v_40)))) (= (f1 c_2 (f1 c_1 (f1 c_1 ?v_46))) (f1 c_1 (f1 c_1 (f1 c_1 ?v_47)))) (= ?v_34 ?v_34) (= (f1 c_2 (f1 c_3 (f1 c_3 ?v_62))) (f1 c_3 (f1 c_3 (f1 c_3 ?v_61)))) (= (f1 c_3 (f1 c_0 (f1 c_0 ?v_41))) (f1 c_0 (f1 c_0 (f1 c_0 ?v_42)))) (= (f1 c_3 (f1 c_1 (f1 c_1 ?v_48))) (f1 c_1 (f1 c_1 (f1 c_1 ?v_49)))) (= (f1 c_3 (f1 c_2 (f1 c_2 ?v_55))) (f1 c_2 (f1 c_2 (f1 c_2 ?v_56)))) (= ?v_35 ?v_35) (= (f1 ?v_0 c_0) ?v_36) (= (f1 ?v_0 c_1) (f1 c_0 ?v_2)) (= (f1 ?v_0 c_2) (f1 c_0 ?v_3)) (= (f1 ?v_0 c_3) (f1 c_0 ?v_4)) (= (f1 ?v_2 c_0) ?v_37) (= (f1 ?v_2 c_1) ?v_38) (= (f1 ?v_2 c_2) (f1 c_0 ?v_11)) (= (f1 ?v_2 c_3) (f1 c_0 ?v_12)) (= (f1 ?v_3 c_0) ?v_39) (= (f1 ?v_3 c_1) (f1 c_0 ?v_16)) (= (f1 ?v_3 c_2) ?v_40) (= (f1 ?v_3 c_3) (f1 c_0 ?v_18)) (= (f1 ?v_4 c_0) ?v_41) (= (f1 ?v_4 c_1) (f1 c_0 ?v_21)) (= (f1 ?v_4 c_2) (f1 c_0 ?v_22)) (= (f1 ?v_4 c_3) ?v_42) (= (f1 ?v_8 c_0) ?v_43) (= (f1 ?v_8 c_1) ?v_44) (= (f1 ?v_8 c_2) (f1 c_1 ?v_3)) (= (f1 ?v_8 c_3) (f1 c_1 ?v_4)) (= (f1 ?v_10 c_0) (f1 c_1 ?v_8)) (= (f1 ?v_10 c_1) ?v_45) (= (f1 ?v_10 c_2) (f1 c_1 ?v_11)) (= (f1 ?v_10 c_3) (f1 c_1 ?v_12)) (= (f1 ?v_11 c_0) (f1 c_1 ?v_14)) (= (f1 ?v_11 c_1) ?v_46) (= (f1 ?v_11 c_2) ?v_47) (= (f1 ?v_11 c_3) (f1 c_1 ?v_18)) (= (f1 ?v_12 c_0) (f1 c_1 ?v_19)) (= (f1 ?v_12 c_1) ?v_48) (= (f1 ?v_12 c_2) (f1 c_1 ?v_22)) (= (f1 ?v_12 c_3) ?v_49) (= (f1 ?v_14 c_0) ?v_50) (= (f1 ?v_14 c_1) (f1 c_2 ?v_2)) (= (f1 ?v_14 c_2) ?v_51) (= (f1 ?v_14 c_3) (f1 c_2 ?v_4)) (= (f1 ?v_16 c_0) (f1 c_2 ?v_8)) (= (f1 ?v_16 c_1) ?v_52) (= (f1 ?v_16 c_2) ?v_53) (= (f1 ?v_16 c_3) (f1 c_2 ?v_12)) (= (f1 ?v_17 c_0) (f1 c_2 ?v_14)) (= (f1 ?v_17 c_1) (f1 c_2 ?v_16)) (= (f1 ?v_17 c_2) ?v_54) (= (f1 ?v_17 c_3) (f1 c_2 ?v_18)) (= (f1 ?v_18 c_0) (f1 c_2 ?v_19)) (= (f1 ?v_18 c_1) (f1 c_2 ?v_21)) (= (f1 ?v_18 c_2) ?v_55) (= (f1 ?v_18 c_3) ?v_56) (= (f1 ?v_19 c_0) ?v_57) (= (f1 ?v_19 c_1) (f1 c_3 ?v_2)) (= (f1 ?v_19 c_2) (f1 c_3 ?v_3)) (= (f1 ?v_19 c_3) ?v_58) (= (f1 ?v_21 c_0) (f1 c_3 ?v_8)) (= (f1 ?v_21 c_1) ?v_59) (= (f1 ?v_21 c_2) (f1 c_3 ?v_11)) (= (f1 ?v_21 c_3) ?v_60) (= (f1 ?v_22 c_0) (f1 c_3 ?v_14)) (= (f1 ?v_22 c_1) (f1 c_3 ?v_16)) (= (f1 ?v_22 c_2) ?v_61) (= (f1 ?v_22 c_3) ?v_62) (= (f1 ?v_23 c_0) (f1 c_3 ?v_19)) (= (f1 ?v_23 c_1) (f1 c_3 ?v_21)) (= (f1 ?v_23 c_2) (f1 c_3 ?v_22)) (= (f1 ?v_23 c_3) ?v_63) (not (= (f1 c2 (f1 c3 (f1 c2 (f1 c2 (f1 c2 c3))))) (f1 c3 (f1 c3 (f1 c2 (f1 c2 (f1 c2 c2))))))) ?v_64 (or ?v_1 ?v_65) (or ?v_1 ?v_66) (or ?v_1 ?v_67) (or ?v_5 (not (= ?v_0 ?v_2))) (or ?v_5 (not (= ?v_8 ?v_10))) (or ?v_5 (not (= ?v_14 ?v_16))) (or ?v_5 (not (= ?v_19 ?v_21))) (or ?v_6 (not (= ?v_0 ?v_3))) (or ?v_6 (not (= ?v_8 ?v_11))) (or ?v_6 (not (= ?v_14 ?v_17))) (or ?v_6 (not (= ?v_19 ?v_22))) (or ?v_7 (not (= ?v_0 ?v_4))) (or ?v_7 (not (= ?v_8 ?v_12))) (or ?v_7 (not (= ?v_14 ?v_18))) (or ?v_7 (not (= ?v_19 ?v_23))) (or ?v_9 (not (= ?v_2 ?v_0))) (or ?v_9 (not (= ?v_10 ?v_8))) (or ?v_9 (not (= ?v_16 ?v_14))) (or ?v_9 (not (= ?v_21 ?v_19))) (or ?v_13 ?v_68) ?v_69 (or ?v_13 ?v_70) (or ?v_13 ?v_71) (or ?v_15 (not (= ?v_2 ?v_3))) (or ?v_15 (not (= ?v_10 ?v_11))) (or ?v_15 (not (= ?v_16 ?v_17))) (or ?v_15 (not (= ?v_21 ?v_22))) (or ?v_20 (not (= ?v_2 ?v_4))) (or ?v_20 (not (= ?v_10 ?v_12))) (or ?v_20 (not (= ?v_16 ?v_18))) (or ?v_20 (not (= ?v_21 ?v_23))) (or ?v_24 (not (= ?v_3 ?v_0))) (or ?v_24 (not (= ?v_11 ?v_8))) (or ?v_24 (not (= ?v_17 ?v_14))) (or ?v_24 (not (= ?v_22 ?v_19))) (or ?v_25 (not (= ?v_3 ?v_2))) (or ?v_25 (not (= ?v_11 ?v_10))) (or ?v_25 (not (= ?v_17 ?v_16))) (or ?v_25 (not (= ?v_22 ?v_21))) (or ?v_26 ?v_72) (or ?v_26 ?v_73) ?v_74 (or ?v_26 ?v_75) (or ?v_27 (not (= ?v_3 ?v_4))) (or ?v_27 (not (= ?v_11 ?v_12))) (or ?v_27 (not (= ?v_17 ?v_18))) (or ?v_27 (not (= ?v_22 ?v_23))) (or ?v_28 (not (= ?v_4 ?v_0))) (or ?v_28 (not (= ?v_12 ?v_8))) (or ?v_28 (not (= ?v_18 ?v_14))) (or ?v_28 (not (= ?v_23 ?v_19))) (or ?v_29 (not (= ?v_4 ?v_2))) (or ?v_29 (not (= ?v_12 ?v_10))) (or ?v_29 (not (= ?v_18 ?v_16))) (or ?v_29 (not (= ?v_23 ?v_21))) (or ?v_30 (not (= ?v_4 ?v_3))) (or ?v_30 (not (= ?v_12 ?v_11))) (or ?v_30 (not (= ?v_18 ?v_17))) (or ?v_30 (not (= ?v_23 ?v_22))) (or ?v_31 ?v_76) (or ?v_31 ?v_77) (or ?v_31 ?v_78) ?v_79 (or (= ?v_0 c_0) (= ?v_0 c_1) (= ?v_0 c_2) (= ?v_0 c_3)) (or (= ?v_2 c_0) (= ?v_2 c_1) (= ?v_2 c_2) (= ?v_2 c_3)) (or (= ?v_3 c_0) (= ?v_3 c_1) (= ?v_3 c_2) (= ?v_3 c_3)) (or (= ?v_4 c_0) (= ?v_4 c_1) (= ?v_4 c_2) (= ?v_4 c_3)) (or (= ?v_8 c_0) (= ?v_8 c_1) (= ?v_8 c_2) (= ?v_8 c_3)) (or (= ?v_10 c_0) (= ?v_10 c_1) (= ?v_10 c_2) (= ?v_10 c_3)) (or (= ?v_11 c_0) (= ?v_11 c_1) (= ?v_11 c_2) (= ?v_11 c_3)) (or (= ?v_12 c_0) (= ?v_12 c_1) (= ?v_12 c_2) (= ?v_12 c_3)) (or (= ?v_14 c_0) (= ?v_14 c_1) (= ?v_14 c_2) (= ?v_14 c_3)) (or (= ?v_16 c_0) (= ?v_16 c_1) (= ?v_16 c_2) (= ?v_16 c_3)) (or (= ?v_17 c_0) (= ?v_17 c_1) (= ?v_17 c_2) (= ?v_17 c_3)) (or (= ?v_18 c_0) (= ?v_18 c_1) (= ?v_18 c_2) (= ?v_18 c_3)) (or (= ?v_19 c_0) (= ?v_19 c_1) (= ?v_19 c_2) (= ?v_19 c_3)) (or (= ?v_21 c_0) (= ?v_21 c_1) (= ?v_21 c_2) (= ?v_21 c_3)) (or (= ?v_22 c_0) (= ?v_22 c_1) (= ?v_22 c_2) (= ?v_22 c_3)) (or (= ?v_23 c_0) (= ?v_23 c_1) (= ?v_23 c_2) (= ?v_23 c_3)) (or (= c2 c_0) (= c2 c_1) (= c2 c_2) (= c2 c_3)) (or (= c3 c_0) (= c3 c_1) (= c3 c_2) (= c3 c_3))))))))))))))))
(check-sat)
(exit)
